Version identifier: 22.1.1.0 | 2022-11-28 | 9160aff4d
CPXPARAM_ClockType                               1
CPXPARAM_Read_DataCheck                          1
CPXPARAM_Threads                                 1
CPXPARAM_Simplex_Tolerances_Optimality           1.0000000000000001e-09
CPXPARAM_TimeLimit                               7200
CPXPARAM_MIP_Tolerances_AbsMIPGap                0
CPXPARAM_MIP_Tolerances_MIPGap                   0
CPXPARAM_MIP_Tolerances_Integrality              0
Tried aggregator 1 time.
MIQP Presolve eliminated 138307 rows and 4 columns.
MIQP Presolve modified 61978 coefficients.
Reduced MIQP has 75293 rows, 10026 columns, and 375871 nonzeros.
Reduced MIQP has 9023 binaries, 1003 generals, 0 SOSs, and 0 indicators.
Reduced MIQP objective Q matrix has 1003 nonzeros.
Presolve time = 1.84 sec. (1030.20 ticks)
Probing time = 0.02 sec. (5.90 ticks)
Tried aggregator 1 time.
MIQP Presolve eliminated 270 rows and 0 columns.
Reduced MIQP has 75023 rows, 10026 columns, and 371281 nonzeros.
Reduced MIQP has 9023 binaries, 1003 generals, 0 SOSs, and 0 indicators.
Reduced MIQP objective Q matrix has 1003 nonzeros.
Presolve time = 0.83 sec. (486.59 ticks)
Classifier predicts products in MIQP should be linearized.
Probing time = 0.02 sec. (5.91 ticks)
Clique table members: 63225.
MIP emphasis: balance optimality and feasibility.
MIP search method: dynamic search.
Parallel mode: none, using 1 thread.
Root relaxation solution time = 1436.01 sec. (3819004.09 ticks)

        Nodes                                         Cuts/
   Node  Left     Objective  IInf  Best Integer    Best Bound    ItCnt     Gap

      0     0     1516.8819  5589                   1516.8819       19         
      0     0     1516.8819  8346                  Cuts: 1694     8099         

Clique cuts applied:  3022
Implied bound cuts applied:  67
Flow cuts applied:  92
Mixed integer rounding cuts applied:  31
Zero-half cuts applied:  1872

Root node processing (before b&c):
  Real time             = 7214.02 sec. (6972497.78 ticks)
Sequential b&c:
  Real time             =    0.00 sec. (0.00 ticks)
                          ------------
Total (root+branch&cut) = 7214.02 sec. (6972497.78 ticks)
Solution is infeasible.

---------------------
@@@ MIP_time_limit_infeasible
Traceback (most recent call last):
  File "/scratch/scherif/DiverseSAT-journal_sup/DiverseSAT_Supplementary_Experiments/experiment-1/cplex/jobs/../solvers/CPLEX-QP-SE.py", line 118, in <module>
    print(f">>> Benchmark {os.path.basename(cnf_file)} k {k} OPT {int(prob.solution.get_objective_value())}"
  File "/users/scherif/.local/lib/python3.9/site-packages/cplex/_internal/_subinterfaces.py", line 7211, in get_objective_value
    return CPX_PROC.getobjval(self._env._e, self._cplex._lp)
  File "/users/scherif/.local/lib/python3.9/site-packages/cplex/_internal/_procedural.py", line 2055, in getobjval
    check_status(env, status)
  File "/users/scherif/.local/lib/python3.9/site-packages/cplex/_internal/_procedural.py", line 249, in __call__
    raise CplexSolverError(error_string, env, status)
cplex.exceptions.errors.CplexSolverError: CPLEX Error  1217: No solution exists.
